79 57 
42 50 
23 33 
7 22 
22 22 
77 29 
22 26 
67 40 
18 35 
77 73 
83 50 
59 78 
52 67 
69 92 
11 48 
17 90 
5 11 
92 28 
45 51 
50 19 
73 80 
49 47 
58 16 
88 76 
3 17 
1 87 
67 61 
17 20 
80 39 
64 92 
87 81 
82 93 
93 27 
73 38 
78 76 
9 52 
8 58 
99 18 
26 39 
95 30 
57 48 
69 24 
61 86 
96 42 
25 61 
34 65 
94 68 
10 87 
95 83 
77 26 
